Sn8 Ir8 O28                             
   1.00000000000000     
    19.0036949525594530   31.7679916259115771   34.9650009315987660
    63.2121625927066688   -8.2325584872466031   58.2386514009820573
    87.1273037102647834   73.3889684554317654   29.2643385268851191
   Sn   Ir   O 
     8     8    28
Direct
  0.7994171964211294  0.4936979778309443  0.3434271333513686
  0.8278307813960266  0.5941622974241665  0.7151051702464742
  0.1255288450441086  0.6386856052748020  0.3163042273898294
  0.1145811339748303  0.6204139843098248  0.8007480064226066
  0.7833280275697805  0.1132206075021529  0.2460189870920696
  0.4904892765337492  0.1512499839840649  0.8601086810001949
  0.7522507938141866  0.4998287833627637  0.0848298158486076
  0.6231763677711819  0.6330939677849402  0.5591126969957753
  0.0422959905213002  0.1262376331066697  0.3408978338387657
  0.1050565556065279  0.1627481390328511  0.7977631478463563
  0.1658374060104613  0.5853069093680883  0.0662969173283475
  0.0486510792814628  0.6277853938310091  0.5993142296534403
  0.6206955515246443  0.1560434415212024  0.0509981374718456
  0.6062490117099599  0.1142424000546761  0.5707851648581879
  0.0085941405615320  0.1622910722733847  0.0699722392403740
  0.1589543262819259  0.1002077332996476  0.5592184203260819
  0.4548523394163617  0.5342761166904524  0.2378506790829520
  0.2479503615620090  0.8080599539643585  0.8520524073870305
  0.5269368773596989  0.0174112487584371  0.5146776780823578
  0.4247819415172941  0.0579749644877411  0.0198553089038309
  0.2311409086596428  0.2867996709379537  0.3424199241945398
  0.3872207669577105  0.5466931498278050  0.7597311801017663
  0.9020660028928710  0.1573168299063344  0.3822458153613142
  0.9100242756194925  0.2007202244620116  0.8482118495910578
  0.2443099066879241  0.7862120117560970  0.1073215168656400
  0.2489097690254762  0.7532270211240850  0.6133840600638808
  0.2026619250193639  0.2275978390259011  0.8939333460605866
  0.2026348934911273  0.7755330317579529  0.3990824009455550
  0.7235509548072597  0.8151699618399764  0.1313380797060461
  0.8417394160657566  0.7919350829926403  0.5864664760627495
  0.9887749139192243  0.4970971344123857  0.5151432697341628
  0.8838755713835263  0.4909447534888592  0.0504619285530998
  0.8284186079550530  0.7190275981161136  0.3812304392779403
  0.9619879922105338  0.0524562133951143  0.7641851650428934
  0.9653722565003465  0.0610348327632959  0.2297331263091270
  0.0368030992344935  0.4792132382280671  0.7506976896026255
  0.4326998121319779  0.4292236164216197  0.5242843516150406
  0.4969177468303471  0.4172266894672115  0.0250271448726310
  0.3550191941916794  0.0691537513155852  0.2468323452900965
  0.4061706739361641  0.0845827811896695  0.7304731416414320
  0.8875310510035048  0.1945129951690419  0.0795068030474130
  0.7151922893331151  0.2540672048431787  0.6164018991085591
  0.8753571953596239  0.4855184471267063  0.3105504917906093
  0.8441627729055645  0.7277977065703021  0.8560006727947655
 
  0.00000000E+00  0.00000000E+00  0.00000000E+00
  0.00000000E+00  0.00000000E+00  0.00000000E+00
  0.00000000E+00  0.00000000E+00  0.00000000E+00
  0.00000000E+00  0.00000000E+00  0.00000000E+00
  0.00000000E+00  0.00000000E+00  0.00000000E+00
  0.00000000E+00  0.00000000E+00  0.00000000E+00
  0.00000000E+00  0.00000000E+00  0.00000000E+00
  0.00000000E+00  0.00000000E+00  0.00000000E+00
  0.00000000E+00  0.00000000E+00  0.00000000E+00
  0.00000000E+00  0.00000000E+00  0.00000000E+00
  0.00000000E+00  0.00000000E+00  0.00000000E+00
  0.00000000E+00  0.00000000E+00  0.00000000E+00
  0.00000000E+00  0.00000000E+00  0.00000000E+00
  0.00000000E+00  0.00000000E+00  0.00000000E+00
  0.00000000E+00  0.00000000E+00  0.00000000E+00
  0.00000000E+00  0.00000000E+00  0.00000000E+00
  0.00000000E+00  0.00000000E+00  0.00000000E+00
  0.00000000E+00  0.00000000E+00  0.00000000E+00
  0.00000000E+00  0.00000000E+00  0.00000000E+00
  0.00000000E+00  0.00000000E+00  0.00000000E+00
  0.00000000E+00  0.00000000E+00  0.00000000E+00
  0.00000000E+00  0.00000000E+00  0.00000000E+00
  0.00000000E+00  0.00000000E+00  0.00000000E+00
  0.00000000E+00  0.00000000E+00  0.00000000E+00
  0.00000000E+00  0.00000000E+00  0.00000000E+00
  0.00000000E+00  0.00000000E+00  0.00000000E+00
  0.00000000E+00  0.00000000E+00  0.00000000E+00
  0.00000000E+00  0.00000000E+00  0.00000000E+00
  0.00000000E+00  0.00000000E+00  0.00000000E+00
  0.00000000E+00  0.00000000E+00  0.00000000E+00
  0.00000000E+00  0.00000000E+00  0.00000000E+00
  0.00000000E+00  0.00000000E+00  0.00000000E+00
  0.00000000E+00  0.00000000E+00  0.00000000E+00
  0.00000000E+00  0.00000000E+00  0.00000000E+00
  0.00000000E+00  0.00000000E+00  0.00000000E+00
  0.00000000E+00  0.00000000E+00  0.00000000E+00
  0.00000000E+00  0.00000000E+00  0.00000000E+00
  0.00000000E+00  0.00000000E+00  0.00000000E+00
  0.00000000E+00  0.00000000E+00  0.00000000E+00
  0.00000000E+00  0.00000000E+00  0.00000000E+00
  0.00000000E+00  0.00000000E+00  0.00000000E+00
  0.00000000E+00  0.00000000E+00  0.00000000E+00
  0.00000000E+00  0.00000000E+00  0.00000000E+00
  0.00000000E+00  0.00000000E+00  0.00000000E+00
